NAME MasterProb
ROWS
 N  OBJ
 L  c0      
 L  c1      
 L  c2      
 L  c3      
 L  c4      
 L  c5      
 L  c6      
 L  c7      
 L  c8      
 L  c9      
 L  c10     
 L  c11     
 L  c12     
 L  c13     
 L  c14     
 L  c15     
COLUMNS
    MARKER    'MARKER'                 'INTORG'
    X[1,1]    OBJ       4.0141244503886008e+02
    X[1,1]    c0        345
    X[1,1]    c1        1
    X[1,2]    OBJ       3.7197553240267694e+03
    X[1,2]    c0        3.1969999999999995e+03
    X[1,2]    c2        1
    X[1,3]    OBJ       5.3521659338514667e+02
    X[1,3]    c0        4.5999999999999994e+02
    X[1,3]    c3        1
    X[2,1]    OBJ       4.0141244503886008e+02
    X[2,1]    c0        345
    X[2,1]    c4        1
    X[2,2]    OBJ       3.7197553240267694e+03
    X[2,2]    c0        3.1969999999999995e+03
    X[2,2]    c5        1
    X[2,3]    OBJ       5.3521659338514667e+02
    X[2,3]    c0        4.5999999999999994e+02
    X[2,3]    c6        1
    X[3,1]    OBJ       4.0141244503886008e+02
    X[3,1]    c0        345
    X[3,1]    c7        1
    X[3,2]    OBJ       3.7197553240267694e+03
    X[3,2]    c0        3.1969999999999995e+03
    X[3,2]    c8        1
    X[3,3]    OBJ       5.3521659338514667e+02
    X[3,3]    c0        4.5999999999999994e+02
    X[3,3]    c9        1
    X[4,1]    OBJ       4.0141244503886008e+02
    X[4,1]    c0        345
    X[4,1]    c10       1
    X[4,2]    OBJ       3.7197553240267694e+03
    X[4,2]    c0        3.1969999999999995e+03
    X[4,2]    c11       1
    X[4,3]    OBJ       5.3521659338514667e+02
    X[4,3]    c0        4.5999999999999994e+02
    X[4,3]    c12       1
    X[5,1]    OBJ       4.0141244503886008e+02
    X[5,1]    c0        345
    X[5,1]    c13       1
    X[5,2]    OBJ       3.7197553240267694e+03
    X[5,2]    c0        3.1969999999999995e+03
    X[5,2]    c14       1
    X[5,3]    OBJ       5.3521659338514667e+02
    X[5,3]    c0        4.5999999999999994e+02
    X[5,3]    c15       1
    U[1]      OBJ       2.9700743527126225e+05
    U[1]      c0        18164
    U[1]      c1        -300
    U[1]      c2        -114
    U[1]      c3        -100
    U[2]      OBJ       1.0290938089755649e+06
    U[2]      c0        62936
    U[2]      c4        -300
    U[2]      c5        -396
    U[2]      c6        -100
    U[3]      OBJ       3.6740035581975291e+05
    U[3]      c0        22469
    U[3]      c7        -300
    U[3]      c8        -141
    U[3]      c9        -100
    U[4]      OBJ       3.5101621960846661e+05
    U[4]      c0        21467
    U[4]      c10       -300
    U[4]      c11       -133
    U[4]      c12       -100
    U[5]      OBJ       6.4032212977442355e+05
    U[5]      c0        39160
    U[5]      c13       -300
    U[5]      c14       -246
    U[5]      c15       -100
    MARKER    'MARKER'                 'INTEND'
    eta       OBJ       1
RHS
    RHS1      c0        10000000
BOUNDS
 LI BND1      X[1,1]    0
 LI BND1      X[1,2]    0
 LI BND1      X[1,3]    0
 LI BND1      X[2,1]    0
 LI BND1      X[2,2]    0
 LI BND1      X[2,3]    0
 LI BND1      X[3,1]    0
 LI BND1      X[3,2]    0
 LI BND1      X[3,3]    0
 LI BND1      X[4,1]    0
 LI BND1      X[4,2]    0
 LI BND1      X[4,3]    0
 LI BND1      X[5,1]    0
 LI BND1      X[5,2]    0
 LI BND1      X[5,3]    0
 BV BND1      U[1]    
 BV BND1      U[2]    
 BV BND1      U[3]    
 BV BND1      U[4]    
 BV BND1      U[5]    
 LO BND1      eta       -100000000
ENDATA
